p cnf 27 72
1 -2 -3 7 8 9 0
1 -2 -3 7 8 -9 0
1 -2 -3 7 -8 9 0
1 -2 -3 7 -8 -9 0
1 -2 -3 -7 8 9 0
1 -2 -3 -7 8 -9 0
1 -2 -3 -7 -8 9 0
1 -2 -3 -7 -8 -9 0
2 -4 3 10 11 12 0
2 -4 3 10 11 -12 0
2 -4 3 10 -11 12 0
2 -4 3 10 -11 -12 0
2 -4 3 -10 11 12 0
2 -4 3 -10 11 -12 0
2 -4 3 -10 -11 12 0
2 -4 3 -10 -11 -12 0
3 4 5 13 14 15 0
3 4 5 13 14 -15 0
3 4 5 13 -14 15 0
3 4 5 13 -14 -15 0
3 4 5 -13 14 15 0
3 4 5 -13 14 -15 0
3 4 5 -13 -14 15 0
3 4 5 -13 -14 -15 0
4 6 16 17 18 19 0
4 6 16 17 18 -19 0
4 6 16 17 -18 19 0
4 6 16 17 -18 -19 0
4 6 16 -17 18 19 0
4 6 16 -17 18 -19 0
4 6 16 -17 -18 19 0
4 6 16 -17 -18 -19 0
4 6 -16 17 18 19 0
4 6 -16 17 18 -19 0
4 6 -16 17 -18 19 0
4 6 -16 17 -18 -19 0
4 6 -16 -17 18 19 0
4 6 -16 -17 18 -19 0
4 6 -16 -17 -18 19 0
4 6 -16 -17 -18 -19 0
5 2 20 21 22 23 0
5 2 20 21 22 -23 0
5 2 20 21 -22 23 0
5 2 20 21 -22 -23 0
5 2 20 -21 22 23 0
5 2 20 -21 22 -23 0
5 2 20 -21 -22 23 0
5 2 20 -21 -22 -23 0
5 2 -20 21 22 23 0
5 2 -20 21 22 -23 0
5 2 -20 21 -22 23 0
5 2 -20 21 -22 -23 0
5 2 -20 -21 22 23 0
5 2 -20 -21 22 -23 0
5 2 -20 -21 -22 23 0
5 2 -20 -21 -22 -23 0
6 -5 24 25 26 27 0
6 -5 24 25 26 -27 0
6 -5 24 25 -26 27 0
6 -5 24 25 -26 -27 0
6 -5 24 -25 26 27 0
6 -5 24 -25 26 -27 0
6 -5 24 -25 -26 27 0
6 -5 24 -25 -26 -27 0
6 -5 -24 25 26 27 0
6 -5 -24 25 26 -27 0
6 -5 -24 25 -26 27 0
6 -5 -24 25 -26 -27 0
6 -5 -24 -25 26 27 0
6 -5 -24 -25 26 -27 0
6 -5 -24 -25 -26 27 0
6 -5 -24 -25 -26 -27 0
